(set-info :smt-lib-version 2.6)
(set-info :category "crafted")
(set-logic QF_FFA)
(define-sort FF0 () (_ FiniteField 52435875175126190479447740508185965837690552500527637822603658699938581184513))
(declare-fun return_n7_alt () FF0)
(declare-fun is_zero_n67_alt () FF0)
(declare-fun mul_n70_alt () FF0)
(declare-fun mul_n12_alt () FF0)
(declare-fun is_zero_n59_alt () FF0)
(declare-fun mul_n68_alt () FF0)
(declare-fun c_n4_alt () FF0)
(declare-fun is_zero_n48_alt () FF0)
(declare-fun mul_n39_alt () FF0)
(declare-fun mul_n42_alt () FF0)
(declare-fun is_zero_n77_alt () FF0)
(declare-fun mul_n80_alt () FF0)
(declare-fun mul_n19_alt () FF0)
(declare-fun mul_n57_alt () FF0)
(declare-fun mul_n28_alt () FF0)
(declare-fun h_n5_alt () FF0)
(declare-fun mul_n69_alt () FF0)
(declare-fun mul_n11_alt () FF0)
(declare-fun mul_n43_alt () FF0)
(declare-fun mul_n78_alt () FF0)
(declare-fun is_zero_n17_alt () FF0)
(declare-fun mul_n23_alt () FF0)
(declare-fun mul_n64_alt () FF0)
(declare-fun is_zero_inv_n81_alt () FF0)
(declare-fun is_zero_n56_alt () FF0)
(declare-fun is_zero_n36_alt () FF0)
(declare-fun mul_n79_alt () FF0)
(declare-fun mul_n29_alt () FF0)
(declare-fun mul_n73_alt () FF0)
(declare-fun mul_n34_alt () FF0)
(declare-fun is_zero_n33_alt () FF0)
(declare-fun mul_n25_alt () FF0)
(declare-fun mul_n54_alt () FF0)
(declare-fun mul_n60_alt () FF0)
(declare-fun mul_n63_alt () FF0)
(declare-fun g_n8_alt () FF0)
(declare-fun is_zero_n75_alt () FF0)
(declare-fun mul_n46_alt () FF0)
(declare-fun mul_n26_alt () FF0)
(declare-fun is_zero_n72_alt () FF0)
(declare-fun is_zero_inv_n76_alt () FF0)
(declare-fun mul_n38_alt () FF0)
(declare-fun mul_n44_alt () FF0)
(declare-fun is_zero_inv_n74_alt () FF0)
(declare-fun mul_n30_alt () FF0)
(declare-fun mul_n45_alt () FF0)
(declare-fun mul_n53_alt () FF0)
(declare-fun is_zero_inv_n71_alt () FF0)
(declare-fun mul_n52_alt () FF0)
(declare-fun mul_n41_alt () FF0)
(declare-fun mul_n50_alt () FF0)
(declare-fun mul_n27_alt () FF0)
(declare-fun is_zero_n62_alt () FF0)
(declare-fun mul_n65_alt () FF0)
(declare-fun mul_n49_alt () FF0)
(declare-fun mul_n20_alt () FF0)
(declare-fun is_zero_inv_n66_alt () FF0)
(declare-fun mul_n51_alt () FF0)
(declare-fun is_zero_inv_n61_alt () FF0)
(declare-fun is_zero_inv_n58_alt () FF0)
(declare-fun mul_n18_alt () FF0)
(declare-fun d_n3_alt () FF0)
(declare-fun mul_n31_alt () FF0)
(declare-fun mul_n37_alt () FF0)
(declare-fun is_zero_inv_n55_alt () FF0)
(declare-fun mul_n10_alt () FF0)
(declare-fun mul_n40_alt () FF0)
(declare-fun mul_n13_alt () FF0)
(declare-fun is_zero_inv_n47_alt () FF0)
(declare-fun mul_n24_alt () FF0)
(declare-fun a_n0_alt () FF0)
(declare-fun mul_n15_alt () FF0)
(declare-fun is_zero_inv_n35_alt () FF0)
(declare-fun e_n2_alt () FF0)
(declare-fun is_zero_inv_n32_alt () FF0)
(declare-fun b_n6_alt () FF0)
(declare-fun is_zero_n22_alt () FF0)
(declare-fun is_zero_inv_n21_alt () FF0)
(declare-fun f_n1_alt () FF0)
(declare-fun is_zero_inv_n16_alt () FF0)
(declare-fun mul_n14_alt () FF0)
(declare-fun mul_n9_alt () FF0)
(declare-fun return_n7 () FF0)
(declare-fun is_zero_n67 () FF0)
(declare-fun mul_n70 () FF0)
(declare-fun mul_n12 () FF0)
(declare-fun is_zero_n59 () FF0)
(declare-fun mul_n68 () FF0)
(declare-fun c_n4 () FF0)
(declare-fun is_zero_n48 () FF0)
(declare-fun mul_n39 () FF0)
(declare-fun mul_n42 () FF0)
(declare-fun is_zero_n77 () FF0)
(declare-fun mul_n80 () FF0)
(declare-fun mul_n19 () FF0)
(declare-fun mul_n57 () FF0)
(declare-fun mul_n28 () FF0)
(declare-fun h_n5 () FF0)
(declare-fun mul_n69 () FF0)
(declare-fun mul_n11 () FF0)
(declare-fun mul_n43 () FF0)
(declare-fun mul_n78 () FF0)
(declare-fun is_zero_n17 () FF0)
(declare-fun mul_n23 () FF0)
(declare-fun mul_n64 () FF0)
(declare-fun is_zero_inv_n81 () FF0)
(declare-fun is_zero_n56 () FF0)
(declare-fun is_zero_n36 () FF0)
(declare-fun mul_n79 () FF0)
(declare-fun mul_n29 () FF0)
(declare-fun mul_n73 () FF0)
(declare-fun mul_n34 () FF0)
(declare-fun is_zero_n33 () FF0)
(declare-fun mul_n25 () FF0)
(declare-fun mul_n54 () FF0)
(declare-fun mul_n60 () FF0)
(declare-fun mul_n63 () FF0)
(declare-fun g_n8 () FF0)
(declare-fun is_zero_n75 () FF0)
(declare-fun mul_n46 () FF0)
(declare-fun mul_n26 () FF0)
(declare-fun is_zero_n72 () FF0)
(declare-fun is_zero_inv_n76 () FF0)
(declare-fun mul_n38 () FF0)
(declare-fun mul_n44 () FF0)
(declare-fun is_zero_inv_n74 () FF0)
(declare-fun mul_n30 () FF0)
(declare-fun mul_n45 () FF0)
(declare-fun mul_n53 () FF0)
(declare-fun is_zero_inv_n71 () FF0)
(declare-fun mul_n52 () FF0)
(declare-fun mul_n41 () FF0)
(declare-fun mul_n50 () FF0)
(declare-fun mul_n27 () FF0)
(declare-fun is_zero_n62 () FF0)
(declare-fun mul_n65 () FF0)
(declare-fun mul_n49 () FF0)
(declare-fun mul_n20 () FF0)
(declare-fun is_zero_inv_n66 () FF0)
(declare-fun mul_n51 () FF0)
(declare-fun is_zero_inv_n61 () FF0)
(declare-fun is_zero_inv_n58 () FF0)
(declare-fun mul_n18 () FF0)
(declare-fun d_n3 () FF0)
(declare-fun mul_n31 () FF0)
(declare-fun mul_n37 () FF0)
(declare-fun is_zero_inv_n55 () FF0)
(declare-fun mul_n10 () FF0)
(declare-fun mul_n40 () FF0)
(declare-fun mul_n13 () FF0)
(declare-fun is_zero_inv_n47 () FF0)
(declare-fun mul_n24 () FF0)
(declare-fun a_n0 () FF0)
(declare-fun mul_n15 () FF0)
(declare-fun is_zero_inv_n35 () FF0)
(declare-fun e_n2 () FF0)
(declare-fun is_zero_inv_n32 () FF0)
(declare-fun b_n6 () FF0)
(declare-fun is_zero_n22 () FF0)
(declare-fun is_zero_inv_n21 () FF0)
(declare-fun f_n1 () FF0)
(declare-fun is_zero_inv_n16 () FF0)
(declare-fun mul_n14 () FF0)
(declare-fun mul_n9 () FF0)
(assert 
  (let ((let0 return_n7_alt))
  (let ((let1 (as ff2 FF0)))
  (let ((let2 is_zero_n67_alt))
  (let ((let3 mul_n70_alt))
  (let ((let4 mul_n12_alt))
  (let ((let5 is_zero_n59_alt))
  (let ((let6 mul_n68_alt))
  (let ((let7 (as ff52435875175126190479447740508185965837690552500527637822603658699938581184512 FF0)))
  (let ((let8 c_n4_alt))
  (let ((let9 (ff.mul let8 let7)))
  (let ((let10 is_zero_n48_alt))
  (let ((let11 mul_n39_alt))
  (let ((let12 (ff.mul let11 let7)))
  (let ((let13 mul_n42_alt))
  (let ((let14 is_zero_n77_alt))
  (let ((let15 mul_n80_alt))
  (let ((let16 mul_n19_alt))
  (let ((let17 mul_n57_alt))
  (let ((let18 mul_n28_alt))
  (let ((let19 (ff.mul let18 let7)))
  (let ((let20 h_n5_alt))
  (let ((let21 mul_n69_alt))
  (let ((let22 mul_n11_alt))
  (let ((let23 (ff.mul let22 let7)))
  (let ((let24 mul_n43_alt))
  (let ((let25 mul_n78_alt))
  (let ((let26 is_zero_n17_alt))
  (let ((let27 (ff.mul let26 let7)))
  (let ((let28 mul_n23_alt))
  (let ((let29 (ff.mul let28 let7)))
  (let ((let30 mul_n64_alt))
  (let ((let31 (ff.mul let30 let7)))
  (let ((let32 (ff.add let31 let29 let27 let25 let24 let23 let21 let20 let19 let17 let16 let15 let14 let13 let12 let10 let9 let6 let5 let4 let3 let2 let1)))
  (let ((let33 is_zero_inv_n81_alt))
  (let ((let34 (ff.mul let33 let32)))
  (let ((let35 (= let34 let0)))
  (let ((let36 (ff.mul let16 let7)))
  (let ((let37 (ff.mul let13 let7)))
  (let ((let38 is_zero_n56_alt))
  (let ((let39 (ff.add let38 let37 let26 let36 let7)))
  (let ((let40 is_zero_n36_alt))
  (let ((let41 mul_n79_alt))
  (let ((let42 mul_n29_alt))
  (let ((let43 (ff.mul let42 let7)))
  (let ((let44 (ff.add let43 let41 let40 let28 let7)))
  (let ((let45 (ff.mul let44 let39)))
  (let ((let46 (= let45 let15)))
  (let ((let47 (as ff1 FF0)))
  (let ((let48 (ff.add let42 let29 let47)))
  (let ((let49 (as ff52435875175126190479447740508185965837690552500527637822603658699938581184511 FF0)))
  (let ((let50 (ff.mul let40 let49)))
  (let ((let51 (ff.add let50 let1)))
  (let ((let52 (ff.mul let51 let48)))
  (let ((let53 (= let52 let41)))
  (let ((let54 mul_n73_alt))
  (let ((let55 mul_n34_alt))
  (let ((let56 (ff.mul let55 let7)))
  (let ((let57 (ff.add let31 let10 let56 let29 let11 let54)))
  (let ((let58 is_zero_n33_alt))
  (let ((let59 (ff.mul let58 let7)))
  (let ((let60 (ff.add let59 let47)))
  (let ((let61 (ff.mul let60 let57)))
  (let ((let62 (= let61 let25)))
  (let ((let63 (as ff0 FF0)))
  (let ((let64 (as ff5 FF0)))
  (let ((let65 mul_n25_alt))
  (let ((let66 mul_n54_alt))
  (let ((let67 mul_n60_alt))
  (let ((let68 (ff.mul let67 let7)))
  (let ((let69 mul_n63_alt))
  (let ((let70 g_n8_alt))
  (let ((let71 (ff.mul let70 let7)))
  (let ((let72 is_zero_n75_alt))
  (let ((let73 (ff.mul let72 let7)))
  (let ((let74 mul_n46_alt))
  (let ((let75 (ff.mul let74 let7)))
  (let ((let76 mul_n26_alt))
  (let ((let77 (ff.mul let76 let7)))
  (let ((let78 is_zero_n72_alt))
  (let ((let79 (ff.mul let78 let7)))
  (let ((let80 (ff.add let17 let79 let77 let9 let75 let73 let23 let20 let71 let69 let68 let4 let66 let65 let64)))
  (let ((let81 (ff.mul let14 let80)))
  (let ((let82 (= let81 let63)))
  (let ((let83 (ff.mul let14 let7)))
  (let ((let84 (ff.add let83 let47)))
  (let ((let85 is_zero_inv_n76_alt))
  (let ((let86 (ff.mul let85 let80)))
  (let ((let87 (= let86 let84)))
  (let ((let88 mul_n38_alt))
  (let ((let89 (ff.mul let54 let7)))
  (let ((let90 mul_n44_alt))
  (let ((let91 (ff.mul let90 let7)))
  (let ((let92 (ff.mul let10 let7)))
  (let ((let93 (ff.add let30 let92 let37 let28 let11 let26 let55 let91 let89 let88 let36)))
  (let ((let94 (ff.mul let72 let93)))
  (let ((let95 (= let94 let63)))
  (let ((let96 (ff.add let73 let47)))
  (let ((let97 is_zero_inv_n74_alt))
  (let ((let98 (ff.mul let97 let93)))
  (let ((let99 (= let98 let96)))
  (let ((let100 (ff.mul let28 let1)))
  (let ((let101 (ff.mul let10 let49)))
  (let ((let102 (ff.mul let30 let1)))
  (let ((let103 (ff.add let102 let101 let100)))
  (let ((let104 (ff.mul let103 let55)))
  (let ((let105 (= let104 let54)))
  (let ((let106 (as ff3 FF0)))
  (let ((let107 (ff.mul let24 let7)))
  (let ((let108 mul_n30_alt))
  (let ((let109 mul_n45_alt))
  (let ((let110 (ff.mul let109 let7)))
  (let ((let111 mul_n53_alt))
  (let ((let112 (ff.add let111 let110 let27 let108 let107 let106)))
  (let ((let113 (ff.mul let78 let112)))
  (let ((let114 (= let113 let63)))
  (let ((let115 (ff.add let79 let47)))
  (let ((let116 is_zero_inv_n71_alt))
  (let ((let117 (ff.mul let116 let112)))
  (let ((let118 (= let117 let115)))
  (let ((let119 mul_n52_alt))
  (let ((let120 (ff.mul let119 let7)))
  (let ((let121 (ff.add let120 let107 let47)))
  (let ((let122 mul_n41_alt))
  (let ((let123 (ff.mul let122 let7)))
  (let ((let124 (ff.add let123 let47)))
  (let ((let125 (ff.mul let124 let121)))
  (let ((let126 (= let125 let3)))
  (let ((let127 (ff.mul let5 let7)))
  (let ((let128 (ff.add let127 let47)))
  (let ((let129 (ff.mul let103 let128)))
  (let ((let130 (= let129 let21)))
  (let ((let131 (ff.mul let4 let7)))
  (let ((let132 (ff.mul let20 let7)))
  (let ((let133 (ff.add let132 let18 let131 let8 let22)))
  (let ((let134 (ff.mul let17 let49)))
  (let ((let135 (ff.add let134 let1)))
  (let ((let136 (ff.mul let135 let133)))
  (let ((let137 (= let136 let6)))
  (let ((let138 (ff.mul let90 let49)))
  (let ((let139 mul_n50_alt))
  (let ((let140 mul_n27_alt))
  (let ((let141 (ff.mul let140 let7)))
  (let ((let142 is_zero_n62_alt))
  (let ((let143 (ff.mul let142 let1)))
  (let ((let144 mul_n65_alt))
  (let ((let145 (ff.mul let144 let7)))
  (let ((let146 (ff.mul let13 let49)))
  (let ((let147 (ff.mul let16 let49)))
  (let ((let148 mul_n49_alt))
  (let ((let149 (ff.mul let148 let7)))
  (let ((let150 (ff.mul let26 let1)))
  (let ((let151 mul_n20_alt))
  (let ((let152 (ff.add let77 let151 let150 let149 let23 let20 let65 let147 let146 let9 let145 let143 let141 let139 let138 let4 let1)))
  (let ((let153 (ff.mul let2 let152)))
  (let ((let154 (= let153 let63)))
  (let ((let155 (ff.mul let2 let7)))
  (let ((let156 (ff.add let155 let47)))
  (let ((let157 is_zero_inv_n66_alt))
  (let ((let158 (ff.mul let157 let152)))
  (let ((let159 (= let158 let156)))
  (let ((let160 (ff.mul let69 let7)))
  (let ((let161 (ff.add let37 let160 let91 let26 let36)))
  (let ((let162 (ff.add let30 let92 let28)))
  (let ((let163 (ff.mul let162 let161)))
  (let ((let164 (= let163 let144)))
  (let ((let165 (ff.add let29 let47)))
  (let ((let166 (ff.mul let10 let1)))
  (let ((let167 (ff.mul let166 let165)))
  (let ((let168 (= let167 let30)))
  (let ((let169 (ff.add let20 let77 let4 let65 let9 let23 let47)))
  (let ((let170 mul_n51_alt))
  (let ((let171 (ff.mul let170 let7)))
  (let ((let172 (ff.add let171 let47)))
  (let ((let173 (ff.mul let172 let169)))
  (let ((let174 (= let173 let69)))
  (let ((let175 (as ff4 FF0)))
  (let ((let176 (ff.mul let65 let7)))
  (let ((let177 (ff.mul let139 let7)))
  (let ((let178 (ff.mul let151 let7)))
  (let ((let179 (ff.add let76 let8 let178 let148 let22 let127 let132 let55 let177 let67 let176 let123 let131 let175)))
  (let ((let180 (ff.mul let142 let179)))
  (let ((let181 (= let180 let63)))
  (let ((let182 (ff.mul let142 let7)))
  (let ((let183 (ff.add let182 let47)))
  (let ((let184 is_zero_inv_n61_alt))
  (let ((let185 (ff.mul let184 let179)))
  (let ((let186 (= let185 let183)))
  (let ((let187 (ff.mul let111 let7)))
  (let ((let188 (ff.add let187 let20 let77 let4 let65 let9 let23 let47)))
  (let ((let189 (ff.mul let48 let188)))
  (let ((let190 (= let189 let67)))
  (let ((let191 (ff.mul let88 let7)))
  (let ((let192 (ff.mul let17 let7)))
  (let ((let193 (ff.add let38 let192 let191 let171 let106)))
  (let ((let194 (ff.mul let5 let193)))
  (let ((let195 (= let194 let63)))
  (let ((let196 is_zero_inv_n58_alt))
  (let ((let197 (ff.mul let196 let193)))
  (let ((let198 (= let197 let128)))
  (let ((let199 mul_n18_alt))
  (let ((let200 (ff.add let110 let47)))
  (let ((let201 (ff.mul let200 let199)))
  (let ((let202 (= let201 let17)))
  (let ((let203 d_n3_alt))
  (let ((let204 (ff.mul let203 let1)))
  (let ((let205 mul_n31_alt))
  (let ((let206 (ff.mul let205 let49)))
  (let ((let207 mul_n37_alt))
  (let ((let208 (ff.mul let108 let49)))
  (let ((let209 (ff.add let110 let74 let24 let208 let111 let207 let206 let66 let204 let106)))
  (let ((let210 (ff.mul let38 let209)))
  (let ((let211 (= let210 let63)))
  (let ((let212 (ff.mul let38 let7)))
  (let ((let213 (ff.add let212 let47)))
  (let ((let214 is_zero_inv_n55_alt))
  (let ((let215 (ff.mul let214 let209)))
  (let ((let216 (= let215 let213)))
  (let ((let217 (ff.add let27 let47)))
  (let ((let218 (ff.mul let151 let217)))
  (let ((let219 (= let218 let66)))
  (let ((let220 (ff.mul let199 let7)))
  (let ((let221 (ff.add let220 let47)))
  (let ((let222 (ff.mul let221 let119)))
  (let ((let223 (= let222 let111)))
  (let ((let224 (ff.add let20 let19 let4 let9 let23 let47)))
  (let ((let225 (ff.add let27 let13 let16 let47)))
  (let ((let226 (ff.mul let225 let224)))
  (let ((let227 (= let226 let119)))
  (let ((let228 mul_n10_alt))
  (let ((let229 (ff.mul let108 let7)))
  (let ((let230 (ff.add let229 let47)))
  (let ((let231 (ff.mul let230 let228)))
  (let ((let232 (= let231 let170)))
  (let ((let233 (ff.mul let74 let58)))
  (let ((let234 (= let233 let139)))
  (let ((let235 (ff.add let10 let151 let7)))
  (let ((let236 (ff.mul let74 let235)))
  (let ((let237 (= let236 let148)))
  (let ((let238 mul_n40_alt))
  (let ((let239 mul_n13_alt))
  (let ((let240 (ff.add let43 let37 let28 let239 let26 let74 let141 let238 let56 let91 let122 let36 let1)))
  (let ((let241 (ff.mul let10 let240)))
  (let ((let242 (= let241 let63)))
  (let ((let243 (ff.add let92 let47)))
  (let ((let244 is_zero_inv_n47_alt))
  (let ((let245 (ff.mul let244 let240)))
  (let ((let246 (= let245 let243)))
  (let ((let247 (ff.mul let140 let109)))
  (let ((let248 (= let247 let74)))
  (let ((let249 mul_n24_alt))
  (let ((let250 (ff.mul let249 let7)))
  (let ((let251 (ff.add let250 let47)))
  (let ((let252 (ff.mul let228 let251)))
  (let ((let253 (= let252 let109)))
  (let ((let254 (ff.add let36 let37 let26 let24 let7)))
  (let ((let255 (ff.add let4 let9 let23 let47)))
  (let ((let256 (ff.mul let255 let254)))
  (let ((let257 (= let256 let90)))
  (let ((let258 (ff.add let141 let47)))
  (let ((let259 (ff.mul let258 let40)))
  (let ((let260 (= let259 let24)))
  (let ((let261 (ff.add let123 let26 let36)))
  (let ((let262 (ff.add let65 let20)))
  (let ((let263 (ff.mul let262 let261)))
  (let ((let264 (= let263 let13)))
  (let ((let265 (ff.add let9 let47)))
  (let ((let266 (ff.mul let26 let265)))
  (let ((let267 (= let266 let122)))
  (let ((let268 (ff.add let12 let47)))
  (let ((let269 (ff.mul let268 let207)))
  (let ((let270 (= let269 let238)))
  (let ((let271 (ff.mul let249 let88)))
  (let ((let272 (= let271 let11)))
  (let ((let273 a_n0_alt))
  (let ((let274 (ff.mul let273 let7)))
  (let ((let275 (ff.add let274 let47)))
  (let ((let276 (ff.mul let262 let275)))
  (let ((let277 (= let276 let88)))
  (let ((let278 (ff.mul let40 let7)))
  (let ((let279 (ff.add let278 let47)))
  (let ((let280 (ff.mul let279 let28)))
  (let ((let281 (= let280 let207)))
  (let ((let282 mul_n15_alt))
  (let ((let283 (ff.add let70 let16 let282 let27 let203 let47)))
  (let ((let284 (ff.mul let40 let283)))
  (let ((let285 (= let284 let63)))
  (let ((let286 is_zero_inv_n35_alt))
  (let ((let287 (ff.mul let286 let283)))
  (let ((let288 (= let287 let279)))
  (let ((let289 (ff.mul let60 let258)))
  (let ((let290 (= let289 let55)))
  (let ((let291 (ff.mul let203 let7)))
  (let ((let292 e_n2_alt))
  (let ((let293 (ff.add let273 let42 let292 let205 let29 let291 let1)))
  (let ((let294 (ff.mul let58 let293)))
  (let ((let295 (= let294 let63)))
  (let ((let296 is_zero_inv_n32_alt))
  (let ((let297 (ff.mul let296 let293)))
  (let ((let298 (= let297 let60)))
  (let ((let299 (ff.mul let204 let230)))
  (let ((let300 (= let299 let205)))
  (let ((let301 (ff.add let132 let47)))
  (let ((let302 b_n6_alt))
  (let ((let303 (ff.mul let302 let301)))
  (let ((let304 (= let303 let108)))
  (let ((let305 (ff.add let132 let28 let18 let131 let8 let22 let7)))
  (let ((let306 (ff.mul let258 let305)))
  (let ((let307 (= let306 let42)))
  (let ((let308 (ff.mul let22 let49)))
  (let ((let309 (ff.mul let8 let49)))
  (let ((let310 (ff.mul let4 let1)))
  (let ((let311 (ff.add let310 let309 let308 let1)))
  (let ((let312 (ff.mul let311 let20)))
  (let ((let313 (= let312 let18)))
  (let ((let314 (ff.mul let169 let251)))
  (let ((let315 (= let314 let140)))
  (let ((let316 (ff.mul let20 let1)))
  (let ((let317 (ff.mul let65 let1)))
  (let ((let318 (ff.add let317 let316)))
  (let ((let319 (ff.mul let318 let255)))
  (let ((let320 (= let319 let76)))
  (let ((let321 is_zero_n22_alt))
  (let ((let322 (ff.mul let321 let7)))
  (let ((let323 (ff.add let132 let322 let47)))
  (let ((let324 (ff.mul let292 let323)))
  (let ((let325 (= let324 let65)))
  (let ((let326 (ff.add let27 let16 let47)))
  (let ((let327 (ff.mul let165 let326)))
  (let ((let328 (= let327 let249)))
  (let ((let329 (ff.add let322 let47)))
  (let ((let330 (ff.mul let329 let239)))
  (let ((let331 (= let330 let28)))
  (let ((let332 (ff.add let273 let8 let302 let203)))
  (let ((let333 (ff.mul let321 let332)))
  (let ((let334 (= let333 let63)))
  (let ((let335 is_zero_inv_n21_alt))
  (let ((let336 (ff.mul let335 let332)))
  (let ((let337 (= let336 let329)))
  (let ((let338 (ff.mul let326 let199)))
  (let ((let339 (= let338 let151)))
  (let ((let340 (ff.add let26 let292 let7)))
  (let ((let341 (ff.mul let217 let340)))
  (let ((let342 (= let341 let16)))
  (let ((let343 (ff.mul let26 let239)))
  (let ((let344 (= let343 let199)))
  (let ((let345 (ff.mul let282 let1)))
  (let ((let346 f_n1_alt))
  (let ((let347 (ff.mul let346 let1)))
  (let ((let348 (ff.mul let228 let7)))
  (let ((let349 (ff.add let348 let347 let22 let70 let20 let345 let302 let47)))
  (let ((let350 (ff.mul let26 let349)))
  (let ((let351 (= let350 let63)))
  (let ((let352 is_zero_inv_n16_alt))
  (let ((let353 (ff.mul let352 let349)))
  (let ((let354 (= let353 let217)))
  (let ((let355 mul_n14_alt))
  (let ((let356 (ff.mul let355 let70)))
  (let ((let357 (= let356 let282)))
  (let ((let358 (ff.mul let346 let8)))
  (let ((let359 (= let358 let355)))
  (let ((let360 (ff.add let131 let8 let22)))
  (let ((let361 (ff.mul let22 let360)))
  (let ((let362 (= let361 let239)))
  (let ((let363 (ff.mul let22 let1)))
  (let ((let364 (ff.mul let363 let8)))
  (let ((let365 (= let364 let4)))
  (let ((let366 (ff.add let348 let47)))
  (let ((let367 (ff.mul let366 let203)))
  (let ((let368 (= let367 let22)))
  (let ((let369 (ff.mul let302 let7)))
  (let ((let370 (ff.add let369 let47)))
  (let ((let371 mul_n9_alt))
  (let ((let372 (ff.mul let371 let370)))
  (let ((let373 (= let372 let228)))
  (let ((let374 (ff.mul let292 let7)))
  (let ((let375 (ff.add let374 let47)))
  (let ((let376 (ff.mul let375 let275)))
  (let ((let377 (= let376 let371)))
  (let ((let378 (and let377 let373 let368 let365 let362 let359 let357 let354 let351 let344 let342 let339 let337 let334 let331 let328 let325 let320 let315 let313 let307 let304 let300 let298 let295 let290 let288 let285 let281 let277 let272 let270 let267 let264 let260 let257 let253 let248 let246 let242 let237 let234 let232 let227 let223 let219 let216 let211 let202 let198 let195 let190 let186 let181 let174 let168 let164 let159 let154 let137 let130 let126 let118 let114 let105 let99 let95 let87 let82 let62 let53 let46 let35)))
  (let ((let379 return_n7))
  (let ((let380 is_zero_n67))
  (let ((let381 mul_n70))
  (let ((let382 mul_n12))
  (let ((let383 is_zero_n59))
  (let ((let384 mul_n68))
  (let ((let385 c_n4))
  (let ((let386 (ff.mul let385 let7)))
  (let ((let387 is_zero_n48))
  (let ((let388 mul_n39))
  (let ((let389 (ff.mul let388 let7)))
  (let ((let390 mul_n42))
  (let ((let391 is_zero_n77))
  (let ((let392 mul_n80))
  (let ((let393 mul_n19))
  (let ((let394 mul_n57))
  (let ((let395 mul_n28))
  (let ((let396 (ff.mul let395 let7)))
  (let ((let397 h_n5))
  (let ((let398 mul_n69))
  (let ((let399 mul_n11))
  (let ((let400 (ff.mul let399 let7)))
  (let ((let401 mul_n43))
  (let ((let402 mul_n78))
  (let ((let403 is_zero_n17))
  (let ((let404 (ff.mul let403 let7)))
  (let ((let405 mul_n23))
  (let ((let406 (ff.mul let405 let7)))
  (let ((let407 mul_n64))
  (let ((let408 (ff.mul let407 let7)))
  (let ((let409 (ff.add let408 let406 let404 let402 let401 let400 let398 let397 let396 let394 let393 let392 let391 let390 let389 let387 let386 let384 let383 let382 let381 let380 let1)))
  (let ((let410 is_zero_inv_n81))
  (let ((let411 (ff.mul let410 let409)))
  (let ((let412 (= let411 let379)))
  (let ((let413 (ff.mul let393 let7)))
  (let ((let414 (ff.mul let390 let7)))
  (let ((let415 is_zero_n56))
  (let ((let416 (ff.add let415 let414 let403 let413 let7)))
  (let ((let417 is_zero_n36))
  (let ((let418 mul_n79))
  (let ((let419 mul_n29))
  (let ((let420 (ff.mul let419 let7)))
  (let ((let421 (ff.add let420 let418 let417 let405 let7)))
  (let ((let422 (ff.mul let421 let416)))
  (let ((let423 (= let422 let392)))
  (let ((let424 (ff.add let419 let406 let47)))
  (let ((let425 (ff.mul let417 let49)))
  (let ((let426 (ff.add let425 let1)))
  (let ((let427 (ff.mul let426 let424)))
  (let ((let428 (= let427 let418)))
  (let ((let429 mul_n73))
  (let ((let430 mul_n34))
  (let ((let431 (ff.mul let430 let7)))
  (let ((let432 (ff.add let408 let387 let431 let406 let388 let429)))
  (let ((let433 is_zero_n33))
  (let ((let434 (ff.mul let433 let7)))
  (let ((let435 (ff.add let434 let47)))
  (let ((let436 (ff.mul let435 let432)))
  (let ((let437 (= let436 let402)))
  (let ((let438 mul_n25))
  (let ((let439 mul_n54))
  (let ((let440 mul_n60))
  (let ((let441 (ff.mul let440 let7)))
  (let ((let442 mul_n63))
  (let ((let443 g_n8))
  (let ((let444 (ff.mul let443 let7)))
  (let ((let445 is_zero_n75))
  (let ((let446 (ff.mul let445 let7)))
  (let ((let447 mul_n46))
  (let ((let448 (ff.mul let447 let7)))
  (let ((let449 mul_n26))
  (let ((let450 (ff.mul let449 let7)))
  (let ((let451 is_zero_n72))
  (let ((let452 (ff.mul let451 let7)))
  (let ((let453 (ff.add let394 let452 let450 let386 let448 let446 let400 let397 let444 let442 let441 let382 let439 let438 let64)))
  (let ((let454 (ff.mul let391 let453)))
  (let ((let455 (= let454 let63)))
  (let ((let456 (ff.mul let391 let7)))
  (let ((let457 (ff.add let456 let47)))
  (let ((let458 is_zero_inv_n76))
  (let ((let459 (ff.mul let458 let453)))
  (let ((let460 (= let459 let457)))
  (let ((let461 mul_n38))
  (let ((let462 (ff.mul let429 let7)))
  (let ((let463 mul_n44))
  (let ((let464 (ff.mul let463 let7)))
  (let ((let465 (ff.mul let387 let7)))
  (let ((let466 (ff.add let407 let465 let414 let405 let388 let403 let430 let464 let462 let461 let413)))
  (let ((let467 (ff.mul let445 let466)))
  (let ((let468 (= let467 let63)))
  (let ((let469 (ff.add let446 let47)))
  (let ((let470 is_zero_inv_n74))
  (let ((let471 (ff.mul let470 let466)))
  (let ((let472 (= let471 let469)))
  (let ((let473 (ff.mul let405 let1)))
  (let ((let474 (ff.mul let387 let49)))
  (let ((let475 (ff.mul let407 let1)))
  (let ((let476 (ff.add let475 let474 let473)))
  (let ((let477 (ff.mul let476 let430)))
  (let ((let478 (= let477 let429)))
  (let ((let479 (ff.mul let401 let7)))
  (let ((let480 mul_n30))
  (let ((let481 mul_n45))
  (let ((let482 (ff.mul let481 let7)))
  (let ((let483 mul_n53))
  (let ((let484 (ff.add let483 let482 let404 let480 let479 let106)))
  (let ((let485 (ff.mul let451 let484)))
  (let ((let486 (= let485 let63)))
  (let ((let487 (ff.add let452 let47)))
  (let ((let488 is_zero_inv_n71))
  (let ((let489 (ff.mul let488 let484)))
  (let ((let490 (= let489 let487)))
  (let ((let491 mul_n52))
  (let ((let492 (ff.mul let491 let7)))
  (let ((let493 (ff.add let492 let479 let47)))
  (let ((let494 mul_n41))
  (let ((let495 (ff.mul let494 let7)))
  (let ((let496 (ff.add let495 let47)))
  (let ((let497 (ff.mul let496 let493)))
  (let ((let498 (= let497 let381)))
  (let ((let499 (ff.mul let383 let7)))
  (let ((let500 (ff.add let499 let47)))
  (let ((let501 (ff.mul let476 let500)))
  (let ((let502 (= let501 let398)))
  (let ((let503 (ff.mul let382 let7)))
  (let ((let504 (ff.mul let397 let7)))
  (let ((let505 (ff.add let504 let395 let503 let385 let399)))
  (let ((let506 (ff.mul let394 let49)))
  (let ((let507 (ff.add let506 let1)))
  (let ((let508 (ff.mul let507 let505)))
  (let ((let509 (= let508 let384)))
  (let ((let510 (ff.mul let463 let49)))
  (let ((let511 mul_n50))
  (let ((let512 mul_n27))
  (let ((let513 (ff.mul let512 let7)))
  (let ((let514 is_zero_n62))
  (let ((let515 (ff.mul let514 let1)))
  (let ((let516 mul_n65))
  (let ((let517 (ff.mul let516 let7)))
  (let ((let518 (ff.mul let390 let49)))
  (let ((let519 (ff.mul let393 let49)))
  (let ((let520 mul_n49))
  (let ((let521 (ff.mul let520 let7)))
  (let ((let522 (ff.mul let403 let1)))
  (let ((let523 mul_n20))
  (let ((let524 (ff.add let450 let523 let522 let521 let400 let397 let438 let519 let518 let386 let517 let515 let513 let511 let510 let382 let1)))
  (let ((let525 (ff.mul let380 let524)))
  (let ((let526 (= let525 let63)))
  (let ((let527 (ff.mul let380 let7)))
  (let ((let528 (ff.add let527 let47)))
  (let ((let529 is_zero_inv_n66))
  (let ((let530 (ff.mul let529 let524)))
  (let ((let531 (= let530 let528)))
  (let ((let532 (ff.mul let442 let7)))
  (let ((let533 (ff.add let414 let532 let464 let403 let413)))
  (let ((let534 (ff.add let407 let465 let405)))
  (let ((let535 (ff.mul let534 let533)))
  (let ((let536 (= let535 let516)))
  (let ((let537 (ff.add let406 let47)))
  (let ((let538 (ff.mul let387 let1)))
  (let ((let539 (ff.mul let538 let537)))
  (let ((let540 (= let539 let407)))
  (let ((let541 (ff.add let397 let450 let382 let438 let386 let400 let47)))
  (let ((let542 mul_n51))
  (let ((let543 (ff.mul let542 let7)))
  (let ((let544 (ff.add let543 let47)))
  (let ((let545 (ff.mul let544 let541)))
  (let ((let546 (= let545 let442)))
  (let ((let547 (ff.mul let438 let7)))
  (let ((let548 (ff.mul let511 let7)))
  (let ((let549 (ff.mul let523 let7)))
  (let ((let550 (ff.add let449 let385 let549 let520 let399 let499 let504 let430 let548 let440 let547 let495 let503 let175)))
  (let ((let551 (ff.mul let514 let550)))
  (let ((let552 (= let551 let63)))
  (let ((let553 (ff.mul let514 let7)))
  (let ((let554 (ff.add let553 let47)))
  (let ((let555 is_zero_inv_n61))
  (let ((let556 (ff.mul let555 let550)))
  (let ((let557 (= let556 let554)))
  (let ((let558 (ff.mul let483 let7)))
  (let ((let559 (ff.add let558 let397 let450 let382 let438 let386 let400 let47)))
  (let ((let560 (ff.mul let424 let559)))
  (let ((let561 (= let560 let440)))
  (let ((let562 (ff.mul let461 let7)))
  (let ((let563 (ff.mul let394 let7)))
  (let ((let564 (ff.add let415 let563 let562 let543 let106)))
  (let ((let565 (ff.mul let383 let564)))
  (let ((let566 (= let565 let63)))
  (let ((let567 is_zero_inv_n58))
  (let ((let568 (ff.mul let567 let564)))
  (let ((let569 (= let568 let500)))
  (let ((let570 mul_n18))
  (let ((let571 (ff.add let482 let47)))
  (let ((let572 (ff.mul let571 let570)))
  (let ((let573 (= let572 let394)))
  (let ((let574 d_n3))
  (let ((let575 (ff.mul let574 let1)))
  (let ((let576 mul_n31))
  (let ((let577 (ff.mul let576 let49)))
  (let ((let578 mul_n37))
  (let ((let579 (ff.mul let480 let49)))
  (let ((let580 (ff.add let482 let447 let401 let579 let483 let578 let577 let439 let575 let106)))
  (let ((let581 (ff.mul let415 let580)))
  (let ((let582 (= let581 let63)))
  (let ((let583 (ff.mul let415 let7)))
  (let ((let584 (ff.add let583 let47)))
  (let ((let585 is_zero_inv_n55))
  (let ((let586 (ff.mul let585 let580)))
  (let ((let587 (= let586 let584)))
  (let ((let588 (ff.add let404 let47)))
  (let ((let589 (ff.mul let523 let588)))
  (let ((let590 (= let589 let439)))
  (let ((let591 (ff.mul let570 let7)))
  (let ((let592 (ff.add let591 let47)))
  (let ((let593 (ff.mul let592 let491)))
  (let ((let594 (= let593 let483)))
  (let ((let595 (ff.add let397 let396 let382 let386 let400 let47)))
  (let ((let596 (ff.add let404 let390 let393 let47)))
  (let ((let597 (ff.mul let596 let595)))
  (let ((let598 (= let597 let491)))
  (let ((let599 mul_n10))
  (let ((let600 (ff.mul let480 let7)))
  (let ((let601 (ff.add let600 let47)))
  (let ((let602 (ff.mul let601 let599)))
  (let ((let603 (= let602 let542)))
  (let ((let604 (ff.mul let447 let433)))
  (let ((let605 (= let604 let511)))
  (let ((let606 (ff.add let387 let523 let7)))
  (let ((let607 (ff.mul let447 let606)))
  (let ((let608 (= let607 let520)))
  (let ((let609 mul_n40))
  (let ((let610 mul_n13))
  (let ((let611 (ff.add let420 let414 let405 let610 let403 let447 let513 let609 let431 let464 let494 let413 let1)))
  (let ((let612 (ff.mul let387 let611)))
  (let ((let613 (= let612 let63)))
  (let ((let614 (ff.add let465 let47)))
  (let ((let615 is_zero_inv_n47))
  (let ((let616 (ff.mul let615 let611)))
  (let ((let617 (= let616 let614)))
  (let ((let618 (ff.mul let512 let481)))
  (let ((let619 (= let618 let447)))
  (let ((let620 mul_n24))
  (let ((let621 (ff.mul let620 let7)))
  (let ((let622 (ff.add let621 let47)))
  (let ((let623 (ff.mul let599 let622)))
  (let ((let624 (= let623 let481)))
  (let ((let625 (ff.add let413 let414 let403 let401 let7)))
  (let ((let626 (ff.add let382 let386 let400 let47)))
  (let ((let627 (ff.mul let626 let625)))
  (let ((let628 (= let627 let463)))
  (let ((let629 (ff.add let513 let47)))
  (let ((let630 (ff.mul let629 let417)))
  (let ((let631 (= let630 let401)))
  (let ((let632 (ff.add let495 let403 let413)))
  (let ((let633 (ff.add let438 let397)))
  (let ((let634 (ff.mul let633 let632)))
  (let ((let635 (= let634 let390)))
  (let ((let636 (ff.add let386 let47)))
  (let ((let637 (ff.mul let403 let636)))
  (let ((let638 (= let637 let494)))
  (let ((let639 (ff.add let389 let47)))
  (let ((let640 (ff.mul let639 let578)))
  (let ((let641 (= let640 let609)))
  (let ((let642 (ff.mul let620 let461)))
  (let ((let643 (= let642 let388)))
  (let ((let644 a_n0))
  (let ((let645 (ff.mul let644 let7)))
  (let ((let646 (ff.add let645 let47)))
  (let ((let647 (ff.mul let633 let646)))
  (let ((let648 (= let647 let461)))
  (let ((let649 (ff.mul let417 let7)))
  (let ((let650 (ff.add let649 let47)))
  (let ((let651 (ff.mul let650 let405)))
  (let ((let652 (= let651 let578)))
  (let ((let653 mul_n15))
  (let ((let654 (ff.add let443 let393 let653 let404 let574 let47)))
  (let ((let655 (ff.mul let417 let654)))
  (let ((let656 (= let655 let63)))
  (let ((let657 is_zero_inv_n35))
  (let ((let658 (ff.mul let657 let654)))
  (let ((let659 (= let658 let650)))
  (let ((let660 (ff.mul let435 let629)))
  (let ((let661 (= let660 let430)))
  (let ((let662 (ff.mul let574 let7)))
  (let ((let663 e_n2))
  (let ((let664 (ff.add let644 let419 let663 let576 let406 let662 let1)))
  (let ((let665 (ff.mul let433 let664)))
  (let ((let666 (= let665 let63)))
  (let ((let667 is_zero_inv_n32))
  (let ((let668 (ff.mul let667 let664)))
  (let ((let669 (= let668 let435)))
  (let ((let670 (ff.mul let575 let601)))
  (let ((let671 (= let670 let576)))
  (let ((let672 (ff.add let504 let47)))
  (let ((let673 b_n6))
  (let ((let674 (ff.mul let673 let672)))
  (let ((let675 (= let674 let480)))
  (let ((let676 (ff.add let504 let405 let395 let503 let385 let399 let7)))
  (let ((let677 (ff.mul let629 let676)))
  (let ((let678 (= let677 let419)))
  (let ((let679 (ff.mul let399 let49)))
  (let ((let680 (ff.mul let385 let49)))
  (let ((let681 (ff.mul let382 let1)))
  (let ((let682 (ff.add let681 let680 let679 let1)))
  (let ((let683 (ff.mul let682 let397)))
  (let ((let684 (= let683 let395)))
  (let ((let685 (ff.mul let541 let622)))
  (let ((let686 (= let685 let512)))
  (let ((let687 (ff.mul let397 let1)))
  (let ((let688 (ff.mul let438 let1)))
  (let ((let689 (ff.add let688 let687)))
  (let ((let690 (ff.mul let689 let626)))
  (let ((let691 (= let690 let449)))
  (let ((let692 is_zero_n22))
  (let ((let693 (ff.mul let692 let7)))
  (let ((let694 (ff.add let504 let693 let47)))
  (let ((let695 (ff.mul let663 let694)))
  (let ((let696 (= let695 let438)))
  (let ((let697 (ff.add let404 let393 let47)))
  (let ((let698 (ff.mul let537 let697)))
  (let ((let699 (= let698 let620)))
  (let ((let700 (ff.add let693 let47)))
  (let ((let701 (ff.mul let700 let610)))
  (let ((let702 (= let701 let405)))
  (let ((let703 (ff.add let644 let385 let673 let574)))
  (let ((let704 (ff.mul let692 let703)))
  (let ((let705 (= let704 let63)))
  (let ((let706 is_zero_inv_n21))
  (let ((let707 (ff.mul let706 let703)))
  (let ((let708 (= let707 let700)))
  (let ((let709 (ff.mul let697 let570)))
  (let ((let710 (= let709 let523)))
  (let ((let711 (ff.add let403 let663 let7)))
  (let ((let712 (ff.mul let588 let711)))
  (let ((let713 (= let712 let393)))
  (let ((let714 (ff.mul let403 let610)))
  (let ((let715 (= let714 let570)))
  (let ((let716 (ff.mul let653 let1)))
  (let ((let717 f_n1))
  (let ((let718 (ff.mul let717 let1)))
  (let ((let719 (ff.mul let599 let7)))
  (let ((let720 (ff.add let719 let718 let399 let443 let397 let716 let673 let47)))
  (let ((let721 (ff.mul let403 let720)))
  (let ((let722 (= let721 let63)))
  (let ((let723 is_zero_inv_n16))
  (let ((let724 (ff.mul let723 let720)))
  (let ((let725 (= let724 let588)))
  (let ((let726 mul_n14))
  (let ((let727 (ff.mul let726 let443)))
  (let ((let728 (= let727 let653)))
  (let ((let729 (ff.mul let717 let385)))
  (let ((let730 (= let729 let726)))
  (let ((let731 (ff.add let503 let385 let399)))
  (let ((let732 (ff.mul let399 let731)))
  (let ((let733 (= let732 let610)))
  (let ((let734 (ff.mul let399 let1)))
  (let ((let735 (ff.mul let734 let385)))
  (let ((let736 (= let735 let382)))
  (let ((let737 (ff.add let719 let47)))
  (let ((let738 (ff.mul let737 let574)))
  (let ((let739 (= let738 let399)))
  (let ((let740 (ff.mul let673 let7)))
  (let ((let741 (ff.add let740 let47)))
  (let ((let742 mul_n9))
  (let ((let743 (ff.mul let742 let741)))
  (let ((let744 (= let743 let599)))
  (let ((let745 (ff.mul let663 let7)))
  (let ((let746 (ff.add let745 let47)))
  (let ((let747 (ff.mul let746 let646)))
  (let ((let748 (= let747 let742)))
  (let ((let749 (and let748 let744 let739 let736 let733 let730 let728 let725 let722 let715 let713 let710 let708 let705 let702 let699 let696 let691 let686 let684 let678 let675 let671 let669 let666 let661 let659 let656 let652 let648 let643 let641 let638 let635 let631 let628 let624 let619 let617 let613 let608 let605 let603 let598 let594 let590 let587 let582 let573 let569 let566 let561 let557 let552 let546 let540 let536 let531 let526 let509 let502 let498 let490 let486 let478 let472 let468 let460 let455 let437 let428 let423 let412)))
  (let ((let750 (= let379 let0)))
  (let ((let751 (not let750)))
  (let ((let752 (= let397 let20)))
  (let ((let753 (= let673 let302)))
  (let ((let754 (= let574 let203)))
  (let ((let755 (= let663 let292)))
  (let ((let756 (= let385 let8)))
  (let ((let757 (= let644 let273)))
  (let ((let758 (= let443 let70)))
  (let ((let759 (= let717 let346)))
  (let ((let760 (and let759 let758 let757 let756 let755 let754 let753 let752)))
  (let ((let761 (and let760 let751 let749 let378)))
  let761
))))))))))))))))))))))))))))))))))))))))))))))))))))))))))))))))))))))))))))))))))))))))))))))))))))))))))))))))))))))))))))))))))))))))))))))))))))))))))))))))))))))))))))))))))))))))))))))))))))))))))))))))))))))))))))))))))))))))))))))))))))))))))))))))))))))))))))))))))))))))))))))))))))))))))))))))))))))))))))))))))))))))))))))))))))))))))))))))))))))))))))))))))))))))))))))))))))))))))))))))))))))))))))))))))))))))))))))))))))))))))))))))))))))))))))))))))))))))))))))))))))))))))))))))))))))))))))))))))))))))))))))))))))))))))))))))))))))))))))))))))))))))))))))))))))))))))))))))))))))))))))))))))))))))))))))))))))))))))))))))))))))))))))))))))))))))))))))))))))))))))))))))))))))))))))))))))))))))))))))))))))))))))))))))))))))))))))))))))))))))))
)
(check-sat)
